495 : 17523 14889 
14889 : 495 1990 
18050 : 9783 17523 
9783 : 15986 18050 
17523 : 18050 495 
15986 : 16033 9783 
16033 : 18766 15986 
11459 : 21536 10264 
9329 : 7858 
1604 : 8669 
7858 : 9329 11879 
8351 : 11879 334 
1990 : 14889 
21536 : 11459 8669 
11879 : 7858 8351 
334 : 8351 7670 
7670 : 334 18819 
18819 : 18766 7670 
8669 : 21536 1604 
10264 : 11459 18766 
18766 : 10264 18819 16033 
7670 1990 11459 1604 9783 9329 
